# Objective value = 2.0206500000000003e+03
I_0_0 674
I_0_1 827
I_0_2 739
I_0_3 913
I_1_0 65
I_1_1 65
I_1_2 7.2164496600635175e-14
I_1_3 6.4999999999999929e+01
I_2_0 86
I_2_1 86
I_2_2 86
I_2_3 0
I_3_0 106
I_3_1 53
I_3_2 1.0600000000000004e+02
I_3_3 5.2999999999999979e+01
I_4_0 26
I_4_1 13
I_4_2 26
I_4_3 1.2999999999999982e+01
I_5_0 87
I_5_1 0
I_5_2 87
I_5_3 0
q_1_0 65
q_1_1 7.2164496600635175e-14
q_1_2 1.2999999999999986e+02
q_2_0 86
q_2_1 86
q_2_2 0
q_3_0 0
q_3_1 1.0600000000000004e+02
q_3_2 -7.1054273576010019e-14
q_4_0 0
q_4_1 26
q_4_2 -1.9539925233402755e-14
q_5_0 0
q_5_1 174
q_5_2 0
y_0_0 1
y_0_1 1
y_0_2 1
y_1_0 1
y_1_1 1.1102230246251565e-15
y_1_2 9.9999999999999889e-01
y_2_0 1
y_2_1 1
y_2_2 0
y_3_0 0
y_3_1 1
y_3_2 0
y_4_0 0
y_4_1 1
y_4_2 -1.3322676295501878e-15
y_5_0 0
y_5_1 1
y_5_2 0
x_0_1_0 1
x_0_1_1 2.2204460492503131e-15
x_0_1_2 2
x_0_2_0 1
x_0_2_1 9.9999999999999944e-01
x_0_2_2 0
x_0_3_0 0
x_0_3_1 0
x_0_3_2 0
x_0_4_0 0
x_0_4_1 0
x_0_4_2 0
x_0_5_0 0
x_0_5_1 1
x_0_5_2 0
x_1_2_0 1
x_1_2_1 0
x_1_2_2 -2.4424906541753444e-15
x_1_3_0 0
x_1_3_1 0
x_1_3_2 0
x_1_4_0 0
x_1_4_1 0
x_1_4_2 0
x_1_5_0 0
x_1_5_1 0
x_1_5_2 0
x_2_3_0 0
x_2_3_1 3.1086244689504383e-15
x_2_3_2 2.6645352591003757e-15
x_2_4_0 0
x_2_4_1 9.9999999999999734e-01
x_2_4_2 0
x_2_5_0 0
x_2_5_1 4.4408920985006262e-16
x_2_5_2 0
x_3_4_0 0
x_3_4_1 9.9999999999999967e-01
x_3_4_2 -2.6645352591003757e-15
x_3_5_0 0
x_3_5_1 9.9999999999999689e-01
x_3_5_2 0
x_4_5_0 0
x_4_5_1 2.6645352591003757e-15
x_4_5_2 0
